p tdp 48 90
10 28
9 13
20 22
15 33
1 18
16 29
14 22
18 25
8 19
21 27
6 12
27 35
12 28
40 41
4 46
39 44
44 47
9 39
17 29
1 26
3 32
34 44
2 36
7 42
17 40
31 43
23 38
6 48
3 16
23 43
43 45
22 33
6 24
37 42
11 21
23 37
3 8
1 14
2 30
5 45
2 43
4 28
11 47
16 33
4 11
5 28
19 28
36 44
13 46
9 16
31 41
33 37
10 20
26 28
26 36
3 35
31 34
1 11
12 46
9 36
42 45
9 25
17 39
16 42
8 42
28 37
7 21
39 40
16 21
1 19
17 46
10 45
7 46
31 46
24 37
12 29
37 48
2 25
10 39
17 23
5 7
7 31
5 33
2 4
18 23
13 42
14 29
18 38
24 42
18 30
